clasp version 2.1.1
Reading from stdin
Solving...
UNSATISFIABLE

Models      : 0     
Time        : 59.307s (Solving: 59.20s 1st Model: 0.00s Unsat: 59.20s)
CPU Time    : 177.170s
Choices     : 4424375
Conflicts   : 4135263
Restarts    : 1131   (Average: 3656.29 Last: 195883)

Atoms       : 11149 
Rules       : 38441  (1: 38058 2: 360 3: 23)
Bodies      : 21421 
Equivalences: 5736   (Atom=Atom: 437 Body=Body: 0 Other: 5299)
Tight       : Yes

Variables   : 29340  (Eliminated:    0 Frozen: 8640)
Constraints : 43830  (Binary: 42.5% Ternary: 56.7% Other:  0.8%)
Lemmas      : 4140612 (Binary:  0.0% Ternary:  0.0% Other:100.0%)
  Conflict  : 4135259 (Average Length: 18.5) 
  Loop      : 0      (Average Length: 0.0) 
  Other     : 5353   (Average Length: 8.0)
  Deleted   : 3780059

============ PARALLEL STATISTICS ============

Threads     : 3
Winner      : 0
Distributed : 6399   (Ratio: 0.00 Average LBD: 3.75) 
Integrated  : 12790  (Ratio: 2.00 Unit: 103 Average Jumps: 4.50)
Splits      : 0
Problems    : 3      (Average Length: 0.00) 

